32      4       
10      10      10      10      
0       0       0       0       0       7       2       4       7       8       10      11      13      
5       1       1       1       0       1       3       
8       5       3       3       0       4       5       9       18      23      
4       0       7       3       1       4       6       22      23      24      
9       2       6       0       4       2       6       22      
9       6       0       6       4       2       12      20      
10      6       0       3       3       2       9       15      
7       0       6       7       6       2       14      22      
3       0       3       2       1       4       16      20      22      31      
9       2       2       0       3       4       16      20      22      31      
8       5       4       0       2       2       15      20      
3       0       4       3       9       1       14      
4       3       4       2       0       1       14      
4       9       0       3       6       1       15      
6       5       4       7       0       2       16      31      
1       0       6       2       3       4       17      26      29      30      
3       5       3       0       4       3       19      27      28      
8       2       0       5       5       1       20      
10      0       2       3       6       1       21      
2       6       3       6       0       1       21      
8       5       3       4       0       1       25      
1       3       4       0       2       1       26      
1       3       0       4       2       1       26      
7       1       4       6       0       1       25      
8       4       3       0       6       1       32      
3       4       5       3       0       1       32      
5       4       5       6       0       1       32      
10      4       4       0       5       1       32      
10      3       5       3       0       1       32      
5       0       2       5       4       1       32      
7       0       7       5       4       1       32      
0       0       0       0       0       0       
